
        $ From http://www.csplib.org/Problems/prob009/data/helmut.pdf
        $ Problem number 137
        $ Sequence length : 25
        language ESSENCE' 1.0
        letting sizemaster be 422
        letting sizes be sequence(2,4,7,13,16,18,20,23,28,29,38,43,46,51,59,68,74,79,86,93,100,111,132,179,243)
        